30 60
28
9 24 0 0
8 9 3 46
9 11 21 49
9 17 17 32
4 24 26 25
4 8 26 17
1 6 11 49
1 5 13 15
4 17 9 15
3 6 0 32
5 3 9 12
5 12 25 0
13 12 13 20
14 14 3 32
14 2 16 12
2 2 14 12
3 8 0 52
9 8 0 24
14 12 11 0
2 12 9 0
6 3 11 46
9 6 12 49
5 2 16 55
13 2 3 55
18 3 3 57
3 14 0 38
16 3 14 14
12 3 14 17
